c generated by sgen
p cnf 61 132
-2 -3 -4 0
-1 -3 -4 0
-1 -2 -4 0
-1 -2 -3 0
-6 -7 -8 0
-5 -7 -8 0
-5 -6 -8 0
-5 -6 -7 0
-10 -11 -12 0
-9 -11 -12 0
-9 -10 -12 0
-9 -10 -11 0
-14 -15 -16 0
-13 -15 -16 0
-13 -14 -16 0
-13 -14 -15 0
-18 -19 -20 0
-17 -19 -20 0
-17 -18 -20 0
-17 -18 -19 0
-22 -23 -24 0
-21 -23 -24 0
-21 -22 -24 0
-21 -22 -23 0
-26 -27 -28 0
-25 -27 -28 0
-25 -26 -28 0
-25 -26 -27 0
-30 -31 -32 0
-29 -31 -32 0
-29 -30 -32 0
-29 -30 -31 0
-34 -35 -36 0
-33 -35 -36 0
-33 -34 -36 0
-33 -34 -35 0
-38 -39 -40 0
-37 -39 -40 0
-37 -38 -40 0
-37 -38 -39 0
-42 -43 -44 0
-41 -43 -44 0
-41 -42 -44 0
-41 -42 -43 0
-46 -47 -48 0
-45 -47 -48 0
-45 -46 -48 0
-45 -46 -47 0
-50 -51 -52 0
-49 -51 -52 0
-49 -50 -52 0
-49 -50 -51 0
-54 -55 -56 0
-53 -55 -56 0
-53 -54 -56 0
-53 -54 -55 0
-57 -58 -59 0
-57 -58 -60 0
-57 -58 -61 0
-57 -59 -60 0
-57 -59 -61 0
-57 -60 -61 0
-58 -59 -60 0
-58 -59 -61 0
-58 -60 -61 0
-59 -60 -61 0
22 39 50 0
42 39 50 0
42 22 50 0
42 22 39 0
54 24 10 0
15 24 10 0
15 54 10 0
15 54 24 0
8 16 49 0
4 16 49 0
4 8 49 0
4 8 16 0
18 26 11 0
40 26 11 0
40 18 11 0
40 18 26 0
5 57 19 0
43 57 19 0
43 5 19 0
43 5 57 0
41 31 61 0
14 31 61 0
14 41 61 0
14 41 31 0
33 32 6 0
9 32 6 0
9 33 6 0
9 33 32 0
27 53 44 0
1 53 44 0
1 27 44 0
1 27 53 0
59 21 25 0
30 21 25 0
30 59 25 0
30 59 21 0
58 52 45 0
12 52 45 0
12 58 45 0
12 58 52 0
48 23 20 0
2 23 20 0
2 48 20 0
2 48 23 0
3 60 34 0
37 60 34 0
37 3 34 0
37 3 60 0
36 47 13 0
28 47 13 0
28 36 13 0
28 36 47 0
38 46 7 0
56 46 7 0
56 38 7 0
56 38 46 0
17 51 35 0
17 51 55 0
17 51 29 0
17 35 55 0
17 35 29 0
17 55 29 0
51 35 55 0
51 35 29 0
51 55 29 0
35 55 29 0
